
Gurobi 10.0.0 (win64) logging started Tue Apr 16 11:05:39 2024

Set parameter LogFile to value "C:\Users\ealvarezq\Documents\GitHub\Comillas\Models\JointResearch\05. Models\06.Benchmarking\D.Representative_days_based_on_RES_and_Demand\IEEE118_mod1_ByStages_nc200/openStarNet_IEEE118_mod1_ByStages_nc200.log"
Set parameter Method to value 2
Set parameter MIPFocus to value 1
Set parameter Presolve to value 2
Set parameter RINS to value 100
Set parameter MIPGap to value 0.01
Set parameter Threads to value 9
Set parameter TimeLimit to value 259200
Set parameter IterationLimit to value 760000000
Gurobi Optimizer version 10.0.0 build v10.0.0rc2 (win64)

CPU model: Intel(R) Core(TM) i7-8700 CPU @ 3.20GHz, instruction set [SSE2|AVX|AVX2]
Thread count: 6 physical cores, 12 logical processors, using up to 9 threads

Optimize a model with 284204 rows, 210326 columns and 732709 nonzeros
Model fingerprint: 0xad40ca88
Variable types: 210292 continuous, 34 integer (34 binary)
Coefficient statistics:
  Matrix range     [1e-03, 9e+03]
  Objective range  [1e+00, 1e+00]
  Bounds range     [1e-04, 3e+00]
  RHS range        [2e-04, 3e+00]
Presolve removed 192386 rows and 97633 columns
Presolve time: 1.45s
Presolved: 91818 rows, 112693 columns, 335511 nonzeros
Variable types: 112659 continuous, 34 integer (34 binary)
Root relaxation presolved: 91818 rows, 112693 columns, 335511 nonzeros

Root barrier log...

Ordering time: 0.02s

Barrier statistics:
 Dense cols : 34
 AA' NZ     : 4.163e+05
 Factor NZ  : 1.643e+06 (roughly 100 MB of memory)
 Factor Ops : 3.621e+07 (less than 1 second per iteration)
 Threads    : 8

                  Objective                Residual
Iter       Primal          Dual         Primal    Dual     Compl     Time
   0   8.90633716e+06 -6.81837888e+08  1.55e+01 4.40e+02  1.11e+04     2s
   1   2.17944769e+06 -2.60738062e+08  3.46e+00 1.99e-08  2.31e+03     2s
   2   5.76619943e+05 -8.86386271e+07  5.98e-01 1.47e-08  4.82e+02     2s
   3   3.46708679e+05 -2.31714062e+07  1.68e-01 4.08e-09  1.09e+02     2s
   4   2.36014907e+05 -3.55945497e+06  3.34e-02 6.58e-10  1.52e+01     2s
   5   1.59593812e+05 -1.25969023e+06  1.61e-02 2.12e-10  5.47e+00     2s
   6   6.63822252e+04 -3.99076276e+05  4.50e-03 6.25e-11  1.74e+00     2s
   7   2.82858521e+04 -1.26255962e+05  1.44e-03 1.80e-11  5.74e-01     2s
   8   1.62851717e+04 -3.42428390e+04  7.02e-04 5.25e-12  1.87e-01     3s
   9   1.13203147e+04 -1.85569315e+04  4.33e-04 2.89e-12  1.11e-01     3s
  10   6.84869225e+03 -9.37887365e+03  2.21e-04 3.73e-12  6.00e-02     3s
  11   6.28501316e+03 -6.75720759e+03  1.97e-04 1.90e-12  4.83e-02     3s
  12   3.78446154e+03 -2.50692610e+03  9.17e-05 1.76e-12  2.33e-02     3s
  13   2.89828264e+03 -1.21147231e+03  5.88e-05 1.91e-12  1.52e-02     3s
  14   2.34172281e+03 -2.37020517e+02  3.91e-05 2.48e-12  9.54e-03     3s
  15   1.90250664e+03  1.69978443e+02  2.43e-05 6.58e-12  6.41e-03     3s
  16   1.70706092e+03  4.60654315e+02  1.79e-05 1.87e-12  4.61e-03     3s
  17   1.49280730e+03  7.29227801e+02  1.13e-05 1.94e-12  2.82e-03     3s
  18   1.31447638e+03  8.70382499e+02  5.62e-06 2.53e-12  1.64e-03     3s
  19   1.23833291e+03  9.89916176e+02  3.20e-06 3.02e-12  9.19e-04     3s
  20   1.19129524e+03  1.02489439e+03  1.79e-06 6.54e-12  6.15e-04     3s
  21   1.17102412e+03  1.05628142e+03  1.20e-06 1.47e-11  4.24e-04     3s
  22   1.16219030e+03  1.06596873e+03  9.42e-07 7.70e-12  3.56e-04     3s
  23   1.15419316e+03  1.09995405e+03  7.28e-07 2.19e-12  2.01e-04     3s
  24   1.14318322e+03  1.11447917e+03  4.14e-07 8.36e-12  1.06e-04     3s
  25   1.13594211e+03  1.12004180e+03  2.04e-07 2.04e-12  5.88e-05     3s
  26   1.13258360e+03  1.12488334e+03  1.12e-07 1.02e-11  2.85e-05     4s
  27   1.13102873e+03  1.12607399e+03  7.12e-08 1.11e-11  1.83e-05     4s
  28   1.13033750e+03  1.12634172e+03  5.32e-08 1.16e-11  1.48e-05     4s
  29   1.12930950e+03  1.12745290e+03  2.63e-08 1.40e-12  6.87e-06     4s
  30   1.12882129e+03  1.12790890e+03  1.41e-08 2.10e-12  3.37e-06     4s
  31   1.12849574e+03  1.12803011e+03  6.03e-09 1.47e-12  1.72e-06     4s
  32   1.12835488e+03  1.12813330e+03  5.17e-09 2.47e-12  8.19e-07     4s
  33   1.12832763e+03  1.12820293e+03  4.18e-09 2.12e-12  4.61e-07     4s
  34   1.12825520e+03  1.12822058e+03  1.95e-09 1.81e-12  1.28e-07     4s
  35   1.12823846e+03  1.12823312e+03  9.69e-10 1.85e-12  1.97e-08     4s
  36   1.12823651e+03  1.12823600e+03  1.73e-09 2.22e-12  1.87e-09     4s
  37   1.12823623e+03  1.12823617e+03  5.46e-10 1.66e-12  2.41e-10     4s
  38   1.12823619e+03  1.12823619e+03  5.10e-09 2.25e-12  1.15e-12     4s

Barrier solved model in 38 iterations and 4.17 seconds (4.45 work units)
Optimal objective 1.12823619e+03


Root crossover log...

    4415 PPushes remaining with PInf 0.0000000e+00                 5s
       0 PPushes remaining with PInf 0.0000000e+00                 6s

  Push phase complete: Pinf 0.0000000e+00, Dinf 3.5807379e-06      6s


Root simplex log...

Iteration    Objective       Primal Inf.    Dual Inf.      Time
    7992    1.1282362e+03   0.000000e+00   3.580709e-06      6s
    7995    1.1282362e+03   0.000000e+00   0.000000e+00      6s
    7995    1.1282362e+03   0.000000e+00   0.000000e+00      6s

Root relaxation: objective 1.128236e+03, 7995 iterations, 4.12 seconds (4.62 work units)

    Nodes    |    Current Node    |     Objective Bounds      |     Work
 Expl Unexpl |  Obj  Depth IntInf | Incumbent    BestBd   Gap | It/Node Time

     0     0 1128.23619    0   24          - 1128.23619      -     -    6s
H    0     0                    8148.9564987 1128.23619  86.2%     -   15s
     0     0 1149.73227    0   23 8148.95650 1149.73227  85.9%     -   26s
H    0     0                    1382.7667552 1149.73227  16.9%     -   31s
     0     0 1150.16699    0   23 1382.76676 1150.16699  16.8%     -   31s
     0     0 1150.16734    0   23 1382.76676 1150.16734  16.8%     -   32s
     0     0 1151.05413    0   24 1382.76676 1151.05413  16.8%     -   34s
     0     0 1151.07014    0   24 1382.76676 1151.07014  16.8%     -   35s
     0     0 1151.07387    0   24 1382.76676 1151.07387  16.8%     -   36s
     0     0 1151.07435    0   24 1382.76676 1151.07435  16.8%     -   36s
     0     0 1151.26764    0   24 1382.76676 1151.26764  16.7%     -   40s
     0     0 1151.27487    0   24 1382.76676 1151.27487  16.7%     -   41s
     0     0 1151.35091    0   24 1382.76676 1151.35091  16.7%     -   45s
     0     0 1151.35135    0   24 1382.76676 1151.35135  16.7%     -   46s
     0     0 1151.36806    0   24 1382.76676 1151.36806  16.7%     -   50s
H    0     0                    1284.2580980 1151.36806  10.3%     -  934s
     0     2 1151.36806    0   24 1284.25810 1151.36806  10.3%     -  937s
     1     4 1198.57849    1   23 1284.25810 1151.36806  10.3% 18027  955s
     3     8 1230.30221    2   22 1284.25810 1170.57275  8.85%  9579  974s
     7    12     cutoff    3      1284.25810 1181.19238  8.03%  8104 1006s
    15    17 1197.15554    4   22 1284.25810 1188.94456  7.42%  6133 1025s
    24    26 1203.46307    5   20 1284.25810 1197.26621  6.77%  5192 1046s
    33    33 1212.68364    6   19 1284.25810 1197.26621  6.77%  4439 1066s
    42    42 1219.44196    7   17 1284.25810 1197.26621  6.77%  4198 1078s
    51    47 1219.60957    8   16 1284.25810 1197.26621  6.77%  3899 1112s
    60    53 1230.65351    9   16 1284.25810 1197.26621  6.77%  3987 1125s
    72    56 1242.98665   10   15 1284.25810 1197.26621  6.77%  3707 1164s
    81    63 1245.53953   11   14 1284.25810 1197.26621  6.77%  3642 1198s
    96    65 1262.87006   13   12 1284.25810 1197.26621  6.77%  3731 1220s
   112    69     cutoff   16      1284.25810 1197.26621  6.77%  3588 1245s
   134    72     cutoff   17      1284.25810 1197.26621  6.77%  3343 1278s
   151    74     cutoff   18      1284.25810 1198.03031  6.71%  3369 1305s
   177    83     cutoff    6      1284.25810 1203.50125  6.29%  3253 1343s
H  200    87                    1281.7225468 1203.50125  6.10%  3184 2096s
   212    91 1277.27146    7   17 1281.72255 1203.50125  6.10%  3143 2124s
   245    92 1270.52233   10   12 1281.72255 1203.50125  6.10%  2899 2157s
   274    91     cutoff   12      1281.72255 1219.45295  4.86%  2866 2199s
   305    97 1242.53590    7   16 1281.72255 1219.45295  4.86%  2859 2236s
   338   111 1253.94884    9   15 1281.72255 1219.45295  4.86%  2807 2277s
   374   106 1266.61227   10   12 1281.72255 1219.45295  4.86%  2788 2321s
   413   109 1266.54564   10   14 1281.72255 1219.45295  4.86%  2733 2373s
   452   103     cutoff   11      1281.72255 1242.61055  3.05%  2745 2430s
   486   103 1268.17947   11   14 1281.72255 1243.49984  2.98%  2799 2490s
   506    96     cutoff   12      1281.72255 1248.18946  2.62%  2891 2541s
   545   103     cutoff   12      1281.72255 1249.66544  2.50%  2888 2592s
   600   105     cutoff   12      1281.72255 1253.15229  2.23%  2813 2717s
   632    92     cutoff   22      1281.72255 1255.67585  2.03%  2793 2760s
   722    70     cutoff   22      1281.72255 1259.45094  1.74%  2580 2822s
   791    52     cutoff   16      1281.72255 1260.96837  1.62%  2528 2882s
   865    13     cutoff   16      1281.72255 1266.02231  1.22%  2454 2913s

Cutting planes:
  Gomory: 1
  Implied bound: 3
  MIR: 829
  Flow cover: 20
  Relax-and-lift: 2

Explored 961 nodes (2224636 simplex iterations) in 2913.76 seconds (5791.22 work units)
Thread count was 9 (of 12 available processors)

Solution count 4: 1281.72 1284.26 1382.77 8148.96 

Optimal solution found (tolerance 1.00e-02)
Best objective 1.281722546820e+03, best bound 1.271095687364e+03, gap 0.8291%

Gurobi 10.0.0 (win64) logging started Tue Apr 16 11:54:25 2024

Set parameter LogFile to value "C:\Users\ealvarezq\Documents\GitHub\Comillas\Models\JointResearch\05. Models\06.Benchmarking\D.Representative_days_based_on_RES_and_Demand\IEEE118_mod1_ByStages_nc200/openStarNet_IEEE118_mod1_ByStages_nc200.log"
Set parameter Method to value 2
Set parameter MIPFocus to value 1
Set parameter Presolve to value 2
Set parameter RINS to value 100
Set parameter MIPGap to value 0.01
Set parameter Threads to value 9
Set parameter TimeLimit to value 259200
Set parameter IterationLimit to value 760000000
Gurobi Optimizer version 10.0.0 build v10.0.0rc2 (win64)

CPU model: Intel(R) Core(TM) i7-8700 CPU @ 3.20GHz, instruction set [SSE2|AVX|AVX2]
Thread count: 6 physical cores, 12 logical processors, using up to 9 threads

Optimize a model with 284204 rows, 210292 columns and 705475 nonzeros
Model fingerprint: 0xf1b76cea
Coefficient statistics:
  Matrix range     [1e-03, 9e+03]
  Objective range  [1e+00, 1e+00]
  Bounds range     [1e-04, 3e+00]
  RHS range        [2e-04, 3e+02]
Presolve removed 211422 rows and 92322 columns
Presolve time: 0.39s
Presolved: 72782 rows, 118599 columns, 282968 nonzeros

Ordering time: 0.01s

Barrier statistics:
 AA' NZ     : 2.391e+05
 Factor NZ  : 9.551e+05 (roughly 80 MB of memory)
 Factor Ops : 1.373e+07 (less than 1 second per iteration)
 Threads    : 9

                  Objective                Residual
Iter       Primal          Dual         Primal    Dual     Compl     Time
   0   1.60056960e+07 -3.47316609e+08  9.66e+01 3.67e+01  5.46e+03     0s
   1   2.02793973e+06 -9.87147696e+07  1.08e+01 6.25e-13  7.33e+02     1s
   2   4.60020270e+05 -1.95935699e+07  1.55e+00 5.12e-13  1.09e+02     1s
   3   1.85617427e+05 -3.05749737e+06  7.66e-02 4.55e-13  1.33e+01     1s
   4   8.67853796e+04 -5.46186061e+05  1.68e-02 2.84e-13  2.48e+00     1s
   5   3.68829583e+04 -1.24674641e+05  5.63e-03 1.71e-13  6.27e-01     1s
   6   1.20860314e+04 -3.77880445e+04  1.14e-03 1.38e-13  1.93e-01     1s
   7   7.74012443e+03 -1.21686297e+04  5.60e-04 1.20e-13  7.69e-02     1s
   8   4.83719801e+03 -4.86313073e+03  2.71e-04 1.19e-13  3.74e-02     1s
   9   3.56703538e+03 -2.09334041e+03  1.68e-04 1.05e-13  2.19e-02     1s
  10   2.60772509e+03 -3.59351267e+02  9.27e-05 1.14e-13  1.15e-02     1s
  11   2.12223136e+03  2.62012672e+02  5.69e-05 8.81e-14  7.18e-03     1s
  12   1.80899379e+03  7.55183895e+02  3.46e-05 8.37e-14  4.07e-03     1s
  13   1.61671824e+03  9.35866007e+02  2.15e-05 8.18e-14  2.63e-03     1s
  14   1.48430640e+03  1.13605066e+03  1.27e-05 1.08e-13  1.34e-03     1s
  15   1.37571795e+03  1.21450848e+03  5.77e-06 1.01e-13  6.22e-04     1s
  16   1.33348454e+03  1.26029178e+03  3.10e-06 1.40e-13  2.83e-04     1s
  17   1.30628526e+03  1.26681098e+03  1.44e-06 1.24e-13  1.52e-04     1s
  18   1.29500026e+03  1.27295277e+03  7.51e-07 1.00e-13  8.51e-05     1s
  19   1.28849722e+03  1.27616654e+03  3.77e-07 1.23e-13  4.76e-05     1s
  20   1.28642450e+03  1.27936572e+03  2.61e-07 1.13e-13  2.72e-05     1s
  21   1.28372552e+03  1.28088142e+03  1.11e-07 1.46e-13  1.10e-05     1s
  22   1.28197555e+03  1.28155989e+03  1.29e-08 1.17e-13  1.60e-06     1s
  23   1.28178911e+03  1.28168909e+03  3.27e-09 1.41e-13  3.86e-07     1s
  24   1.28174695e+03  1.28171413e+03  1.18e-09 1.38e-13  1.27e-07     1s
  25   1.28172536e+03  1.28172073e+03  1.02e-09 1.08e-13  1.79e-08     1s
  26   1.28172285e+03  1.28172247e+03  1.35e-09 1.22e-13  1.48e-09     1s
  27   1.28172255e+03  1.28172255e+03  4.13e-10 1.16e-13  2.13e-13     1s

Barrier solved model in 27 iterations and 1.38 seconds (1.38 work units)
Optimal objective 1.28172255e+03

Crossover log...

   20895 DPushes remaining with DInf 0.0000000e+00                 1s
       0 DPushes remaining with DInf 0.0000000e+00                 2s

    1802 PPushes remaining with PInf 0.0000000e+00                 2s
       0 PPushes remaining with PInf 0.0000000e+00                 2s

  Push phase complete: Pinf 0.0000000e+00, Dinf 3.4585565e-12      2s

Iteration    Objective       Primal Inf.    Dual Inf.      Time
    5441    1.2817225e+03   0.000000e+00   0.000000e+00      2s

Solved in 5441 iterations and 2.04 seconds (2.03 work units)
Optimal objective  1.281722547e+03
